132
0 2 9 58 56 100 80 51 55 120 
45 72 121 111 131 73 115 42 88 52 
43 18 40 124 104 84 16 94 17 27 
95 103 68 105 92 63 50 75 112 24 
61 6 13 23 113 34 19 48 11 10 
102 129 5 33 117 98 108 114 101 110 
32 46 30 64 127 53 59 12 77 8 
87 69 25 22 47 14 60 71 93 78 
83 74 20 90 79 66 116 29 26 54 
49 67 28 86 81 21 130 62 122 119 
126 107 91 36 65 4 85 44 31 99 
1 97 125 123 15 35 39 7 3 106 
38 70 96 41 37 89 82 118 57 76 
128 109 
